p cnf 14 64
-4 8 14 0
7 -11 -12 0
-3 -4 -8 0
8 -11 13 0
3 -4 12 0
2 11 -13 0
5 7 -11 0
11 13 -14 0
-5 -13 -14 0
-4 7 -8 0
1 8 -13 0
-6 -8 9 0
2 3 -7 0
-2 4 -12 0
-4 -10 -12 0
-7 -11 -13 0
-3 9 12 0
-3 10 -12 0
1 6 7 0
4 11 -13 0
2 5 -14 0
2 -5 -10 0
7 12 -13 0
8 10 -11 0
-3 -7 11 0
3 7 -10 0
-4 -5 -10 0
-6 7 -9 0
-3 7 9 0
-1 -4 -8 0
7 -11 -13 0
-2 -6 14 0
-4 10 13 0
10 -12 14 0
5 -10 -13 0
7 11 -14 0
-7 8 10 0
-9 12 14 0
1 -2 8 0
1 6 -10 0
1 12 13 0
-2 -12 14 0
-2 -4 -12 0
-1 7 11 0
-3 8 9 0
4 -5 12 0
2 -7 9 0
-3 9 -14 0
4 8 13 0
2 7 -13 0
3 -12 13 0
-2 6 7 0
1 -2 -3 0
-2 -8 -14 0
1 -4 -11 0
-3 12 -13 0
-5 11 -12 0
-3 -11 14 0
-6 -7 -9 0
-6 -12 -13 0
-8 -9 -14 0
2 -3 13 0
4 -5 -11 0
3 8 -13 0
